; --------------------------------------------------------------------------
; File     : ODRL431-1.smt2
; Domain   : ODRL Spatial Axis Profile
; Problem  : Axis 1 touches but axis 2 open gap → Conflict
; Expected : unsat
; Verdict  : Conflict
; Category : Boundary
;
; ODRL Policy (Turtle):
;   @prefix odrl: <http://www.w3.org/ns/odrl/2/> .
;   @prefix oax:  <http://w3id.org/odrl/spatial-axis#> .
;   @prefix xsd:  <http://www.w3.org/2001/XMLSchema#> .
;   @prefix ex:   <https://example.org/> .
;
;   ex:policyA a odrl:Set ;
;     odrl:permission [
;       odrl:action odrl:use ;
;       odrl:constraint [
;         odrl:leftOperand oax:absoluteSizeWidth ;
;         odrl:operator odrl:lteq ;
;         odrl:rightOperand "600"^^xsd:decimal ] ;
;       odrl:constraint [
;         odrl:leftOperand oax:absoluteSizeHeight ;
;         odrl:operator odrl:lt ;
;         odrl:rightOperand "400"^^xsd:decimal ] ;
;     ] .
;
;   ex:policyB a odrl:Set ;
;     odrl:permission [
;       odrl:action odrl:use ;
;       odrl:constraint [
;         odrl:leftOperand oax:absoluteSizeWidth ;
;         odrl:operator odrl:gteq ;
;         odrl:rightOperand "600"^^xsd:decimal ] ;
;       odrl:constraint [
;         odrl:leftOperand oax:absoluteSizeHeight ;
;         odrl:operator odrl:gteq ;
;         odrl:rightOperand "400"^^xsd:decimal ] ;
;     ] .
;
; Gen      : gen_axis_suite.py
; --------------------------------------------------------------------------
(set-logic QF_LRA)
(declare-const x Real)
(declare-const y Real)

; --- Axis 1: width ---
(assert (> x 0))
; width: lteq 600  ∧  gteq 600
(assert (<= x 600))
(assert (>= x 600))

; --- Axis 2: height ---
(assert (> y 0))
; height: lt 400  ∧  gteq 400
(assert (< y 400))
(assert (>= y 400))

; Result: unsat → Conflict
(check-sat)
(exit)
